c uprop, v00.0, 
c reading from data/prog419.c.cnf
c done reading: 0.002693
p cnf 160 728
-67 -85 0
67 85 0
-62 85 0
62 -85 0
67 -79 0
-77 -79 0
-67 77 79 0
-67 -72 77 0
67 -72 -77 0
67 72 77 0
-67 72 -77 0
-68 79 0
-65 -68 0
65 68 -79 0
-64 65 -79 0
-64 -65 79 0
64 65 79 0
64 -65 -79 0
-63 68 0
-60 -63 0
60 63 -68 0
-58 60 -68 0
-58 -60 68 0
58 60 68 0
58 -60 -68 0
63 -83 0
-81 -83 0
-63 81 83 0
-63 81 -87 0
63 -81 -87 0
63 81 87 0
-63 -81 87 0
83 -88 0
-74 -88 0
74 -83 88 0
74 -83 -89 0
-74 83 -89 0
74 83 89 0
-74 -83 89 0
88 -90 0
-70 -90 0
70 -88 90 0
70 -88 -91 0
-70 88 -91 0
70 88 91 0
-70 -88 91 0
85 -92 0
-85 92 0
-77 -85 93 0
77 85 -93 0
77 -93 0
85 -93 0
77 -93 -94 0
85 -93 -94 0
-93 -94 0
-77 93 94 0
-85 93 94 0
77 85 -94 0
-65 -77 95 0
-65 -93 95 0
-77 -93 95 0
65 77 -95 0
65 93 -95 0
77 93 -95 0
65 -95 -96 0
77 -95 -96 0
93 -95 -96 0
-65 95 96 0
-77 95 96 0
-93 95 96 0
-65 -77 -93 96 0
65 77 93 -96 0
-60 -65 97 0
-60 -95 97 0
-65 -95 97 0
60 65 -97 0
60 95 -97 0
65 95 -97 0
60 -97 -98 0
65 -97 -98 0
95 -97 -98 0
-60 97 98 0
-65 97 98 0
-95 97 98 0
-60 -65 -95 98 0
60 65 95 -98 0
-60 -81 99 0
-81 -97 99 0
-60 -97 99 0
60 81 -99 0
81 97 -99 0
60 97 -99 0
-57 81 -99 0
-57 60 -99 0
-57 97 -99 0
57 -81 99 0
57 -60 99 0
57 -97 99 0
57 -60 -81 -97 0
-57 60 81 97 0
56 -74 -81 0
56 -74 -99 0
56 -81 -99 0
-56 74 81 0
-56 74 99 0
-56 81 99 0
-55 -56 74 0
-55 -56 81 0
-55 -56 99 0
55 56 -74 0
55 56 -81 0
55 56 -99 0
55 -74 -81 -99 0
-55 74 81 99 0
54 -70 -74 0
54 -56 -70 0
54 -56 -74 0
-54 70 74 0
-54 56 70 0
-54 56 74 0
-53 -54 70 0
-53 -54 74 0
-53 -54 56 0
53 54 -70 0
53 54 -74 0
53 54 -56 0
53 -56 -70 -74 0
-53 56 70 74 0
70 -84 0
54 -84 0
-54 -70 84 0
-54 -70 -76 0
54 70 -76 0
54 -70 76 0
-54 70 76 0
-59 96 0
59 -96 0
80 -85 -98 0
-80 85 98 0
-80 98 0
-80 85 0
-73 -80 98 0
-73 -80 85 0
-73 -80 0
73 80 -98 0
73 80 -85 0
-73 85 98 0
-57 69 -77 0
-57 69 -80 0
69 -77 -80 0
57 -69 77 0
57 -69 80 0
-69 77 80 0
-52 57 -69 0
-52 -69 77 0
-52 -69 80 0
52 -57 69 0
52 69 -77 0
52 69 -80 0
52 -57 -77 -80 0
-52 57 77 80 0
51 -55 -65 0
51 -55 -69 0
51 -65 -69 0
-51 55 65 0
-51 55 69 0
-51 65 69 0
-50 -51 55 0
-50 -51 65 0
-50 -51 69 0
50 51 -55 0
50 51 -65 0
50 51 -69 0
50 -55 -65 -69 0
-50 55 65 69 0
49 -53 -60 0
49 -51 -53 0
49 -51 -60 0
-49 53 60 0
-49 51 53 0
-49 51 60 0
-48 -49 53 0
-48 -49 60 0
-48 -49 51 0
48 49 -53 0
48 49 -60 0
48 49 -51 0
48 -51 -53 -60 0
-48 51 53 60 0
47 -76 -81 0
47 -49 -76 0
47 -49 -81 0
-47 76 81 0
-47 49 76 0
-47 49 81 0
-46 -47 76 0
-46 -47 81 0
-46 -47 49 0
46 47 -76 0
46 47 -81 0
46 47 -49 0
46 -49 -76 -81 0
-46 49 76 81 0
45 -74 -84 0
45 -47 -84 0
45 -47 -74 0
-45 74 84 0
-45 47 84 0
-45 47 74 0
-44 -45 84 0
-44 -45 74 0
-44 -45 47 0
44 45 -84 0
44 45 -74 0
44 45 -47 0
44 -47 -74 -84 0
-44 47 74 84 0
-43 70 0
-43 45 0
43 -45 -70 0
-42 -45 -70 0
-42 45 70 0
42 45 -70 0
42 -45 70 0
-41 -92 0
41 92 0
-40 92 0
40 -92 0
-39 41 0
-39 -94 0
39 -41 94 0
-38 -41 94 0
-38 41 -94 0
38 41 94 0
38 -41 -94 0
-37 39 0
-37 -59 0
37 -39 59 0
-36 -39 59 0
-36 39 -59 0
36 39 59 0
36 -39 -59 0
-35 37 0
-35 -73 0
35 -37 73 0
-34 -37 73 0
-34 37 -73 0
34 37 73 0
34 -37 -73 0
35 -100 0
-52 -100 0
-35 52 100 0
-35 52 -101 0
35 -52 -101 0
35 52 101 0
-35 -52 101 0
100 -102 0
-50 -102 0
50 -100 102 0
50 -100 -103 0
-50 100 -103 0
50 100 103 0
-50 -100 103 0
102 -104 0
-48 -104 0
48 -102 104 0
48 -102 -105 0
-48 102 -105 0
48 102 105 0
-48 -102 105 0
104 -106 0
-46 -106 0
46 -104 106 0
46 -104 -107 0
-46 104 -107 0
46 104 107 0
-46 -104 107 0
106 -108 0
-44 -108 0
44 -106 108 0
44 -106 -109 0
-44 106 -109 0
44 106 109 0
-44 -106 109 0
108 -110 0
-42 -110 0
42 -108 110 0
42 -108 -111 0
-42 108 -111 0
42 108 111 0
-42 -108 111 0
110 -112 0
-43 -112 0
43 -110 112 0
43 -110 -113 0
-43 110 -113 0
43 110 113 0
-43 -110 113 0
-114 -116 0
-116 -117 0
114 116 117 0
114 117 -119 0
-114 -117 -119 0
-114 117 119 0
114 -117 119 0
116 -120 0
-120 -121 0
-116 120 121 0
-116 121 -123 0
116 -121 -123 0
116 121 123 0
-116 -121 123 0
120 -124 0
-124 -125 0
-120 124 125 0
-120 125 -127 0
120 -125 -127 0
120 125 127 0
-120 -125 127 0
124 -128 0
-128 -129 0
-124 128 129 0
-124 129 -131 0
124 -129 -131 0
124 129 131 0
-124 -129 131 0
128 -132 0
-132 -133 0
-128 132 133 0
-128 133 -135 0
128 -133 -135 0
128 133 135 0
-128 -133 135 0
132 -136 0
-136 -137 0
-132 136 137 0
-132 137 -139 0
132 -137 -139 0
132 137 139 0
-132 -137 139 0
136 -140 0
-140 -141 0
-136 140 141 0
-136 141 -143 0
136 -141 -143 0
136 141 143 0
-136 -141 143 0
121 -144 0
114 -144 0
-114 -121 144 0
-114 -121 -145 0
114 121 -145 0
114 -121 145 0
-114 121 145 0
-117 -125 146 0
-125 -144 146 0
-117 -144 146 0
117 125 -146 0
125 144 -146 0
117 144 -146 0
125 -146 -147 0
117 -146 -147 0
144 -146 -147 0
-125 146 147 0
-117 146 147 0
-144 146 147 0
-117 -125 -144 147 0
117 125 144 -147 0
-121 -129 148 0
-129 -146 148 0
-121 -146 148 0
121 129 -148 0
129 146 -148 0
121 146 -148 0
129 -148 -149 0
121 -148 -149 0
146 -148 -149 0
-129 148 149 0
-121 148 149 0
-146 148 149 0
-121 -129 -146 149 0
121 129 146 -149 0
-125 -133 150 0
-133 -148 150 0
-125 -148 150 0
125 133 -150 0
133 148 -150 0
125 148 -150 0
133 -150 -151 0
125 -150 -151 0
148 -150 -151 0
-133 150 151 0
-125 150 151 0
-148 150 151 0
-125 -133 -148 151 0
125 133 148 -151 0
-129 -137 152 0
-137 -150 152 0
-129 -150 152 0
129 137 -152 0
137 150 -152 0
129 150 -152 0
137 -152 -153 0
129 -152 -153 0
150 -152 -153 0
-137 152 153 0
-129 152 153 0
-150 152 153 0
-129 -137 -150 153 0
129 137 150 -153 0
-133 -141 154 0
-141 -152 154 0
-133 -152 154 0
133 141 -154 0
141 152 -154 0
133 152 -154 0
141 -154 -155 0
133 -154 -155 0
152 -154 -155 0
-141 154 155 0
-133 154 155 0
-152 154 155 0
-133 -141 -152 155 0
133 141 152 -155 0
137 -156 0
154 -156 0
-137 -154 156 0
-137 -154 -157 0
137 154 -157 0
-137 154 157 0
137 -154 157 0
-86 141 0
-86 156 0
86 -141 -156 0
-78 -141 -156 0
-78 141 156 0
78 -141 156 0
78 141 -156 0
-66 147 0
-66 114 0
66 -114 -147 0
-61 -114 -147 0
-61 114 147 0
61 114 -147 0
61 -114 147 0
82 -117 -149 0
-66 82 -149 0
-66 82 -117 0
-82 117 149 0
66 -82 149 0
66 -82 117 0
-75 -82 149 0
-75 -82 117 0
66 -75 -82 0
75 82 -149 0
75 82 -117 0
-66 75 82 0
-66 75 -117 -149 0
66 -75 117 149 0
71 -121 -151 0
71 -82 -151 0
71 -82 -121 0
-71 121 151 0
-71 82 151 0
-71 82 121 0
-71 -115 151 0
-71 -115 121 0
-71 82 -115 0
71 115 -151 0
71 115 -121 0
71 -82 115 0
-82 115 -121 -151 0
82 -115 121 151 0
118 -125 -153 0
-71 118 -153 0
-71 118 -125 0
-118 125 153 0
71 -118 153 0
71 -118 125 0
-118 -122 153 0
-118 -122 125 0
71 -118 -122 0
118 122 -153 0
118 122 -125 0
-71 118 122 0
-71 122 -125 -153 0
71 -122 125 153 0
126 -129 -155 0
-118 126 -155 0
-118 126 -129 0
-126 129 155 0
118 -126 155 0
118 -126 129 0
-126 -130 155 0
-126 129 -130 0
118 -126 -130 0
126 130 -155 0
126 -129 130 0
-118 126 130 0
-118 -129 130 -155 0
118 129 -130 155 0
-133 134 -157 0
-126 134 -157 0
-126 -133 134 0
133 -134 157 0
126 -134 157 0
126 133 -134 0
-134 -138 157 0
133 -134 -138 0
126 -134 -138 0
134 138 -157 0
-133 134 138 0
-126 134 138 0
-126 -133 138 -157 0
126 133 -138 157 0
-78 -137 142 0
-78 -134 142 0
-134 -137 142 0
78 137 -142 0
78 134 -142 0
134 137 -142 0
78 -142 -158 0
137 -142 -158 0
134 -142 -158 0
-78 142 158 0
-137 142 158 0
-134 142 158 0
-78 -134 -137 158 0
78 134 137 -158 0
-86 -141 159 0
-86 -142 159 0
-141 -142 159 0
86 141 -159 0
86 142 -159 0
141 142 -159 0
86 -159 -160 0
141 -159 -160 0
142 -159 -160 0
-86 159 160 0
-141 159 160 0
-142 159 160 0
-86 -141 -142 160 0
86 141 142 -160 0
-33 -114 0
-33 -117 0
33 114 117 0
-32 114 117 0
-32 -114 -117 0
32 -114 117 0
32 114 -117 0
-31 33 0
-31 -145 0
31 -33 145 0
-30 -33 145 0
-30 33 -145 0
30 33 145 0
30 -33 -145 0
-29 31 0
-29 -61 0
29 -31 61 0
-28 -31 61 0
-28 31 -61 0
28 31 61 0
28 -31 -61 0
-27 29 0
-27 -75 0
27 -29 75 0
-26 -29 75 0
-26 29 -75 0
26 29 75 0
26 -29 -75 0
-25 27 0
-25 -115 0
25 -27 115 0
-24 -27 115 0
-24 27 -115 0
24 27 115 0
24 -27 -115 0
-23 25 0
-23 -122 0
23 -25 122 0
-22 -25 122 0
-22 25 -122 0
22 25 122 0
22 -25 -122 0
-21 23 0
-21 -130 0
21 -23 130 0
-20 -23 130 0
-20 23 -130 0
20 23 130 0
20 -23 -130 0
-19 21 0
-19 -138 0
19 -21 138 0
-18 -21 138 0
-18 21 -138 0
18 21 138 0
18 -21 -138 0
-17 19 0
-17 -158 0
17 -19 158 0
-16 -19 158 0
-16 19 -158 0
16 19 158 0
16 -19 -158 0
-15 17 0
-15 -160 0
15 -17 160 0
-14 -17 160 0
-14 17 -160 0
14 17 160 0
14 -17 -160 0
-13 15 0
-13 -159 0
13 -15 159 0
-12 -15 159 0
-12 15 -159 0
12 15 159 0
12 -15 -159 0
-11 92 0
-11 114 0
11 -92 -114 0
-92 -114 0
92 114 0
10 -94 -117 0
10 -11 -94 0
10 -11 -117 0
-10 94 117 0
-10 11 94 0
-10 11 117 0
-10 94 0
-10 117 0
-10 11 0
11 94 117 0
9 -59 -145 0
9 -10 -59 0
9 -10 -145 0
-9 59 145 0
-9 10 59 0
-9 10 145 0
-9 59 0
-9 145 0
-9 10 0
10 59 145 0
8 -61 -73 0
8 -9 -73 0
8 -9 -61 0
-8 61 73 0
-8 9 73 0
-8 9 61 0
-8 73 0
-8 61 0
-8 9 0
9 61 73 0
7 -52 -75 0
7 -8 -52 0
7 -8 -75 0
-7 52 75 0
-7 8 52 0
-7 8 75 0
7 -52 0
7 -75 0
7 -8 0
-8 -52 -75 0
6 -50 -115 0
6 -7 -50 0
6 -7 -115 0
-6 50 115 0
-6 7 50 0
-6 7 115 0
-6 50 0
-6 115 0
-6 7 0
7 50 115 0
5 -48 -122 0
5 -6 -48 0
5 -6 -122 0
-5 48 122 0
-5 6 48 0
-5 6 122 0
5 -48 0
5 -122 0
5 -6 0
-6 -48 -122 0
4 -46 -130 0
4 -5 -46 0
4 -5 -130 0
-4 46 130 0
-4 5 46 0
-4 5 130 0
4 -46 0
4 -130 0
4 -5 0
-5 -46 -130 0
3 -44 -138 0
3 -4 -44 0
3 -4 -138 0
-3 44 138 0
-3 4 44 0
-3 4 138 0
3 -44 0
3 -138 0
3 -4 0
-4 -44 -138 0
2 -42 -158 0
2 -3 -42 0
2 -3 -158 0
-2 42 158 0
-2 3 42 0
-2 3 158 0
2 -42 0
2 -158 0
2 -3 0
-3 -42 -158 0
1 -43 -160 0
1 -2 -43 0
1 -2 -160 0
-1 43 160 0
-1 2 43 0
-1 2 160 0
1 -43 0
1 -160 0
1 -2 0
-2 -43 -160 0
-1 -159 0
1 -159 0
-1 159 0
